
Gurobi 12.0.2 (linux64, gurobi_cl) logging started Tue Sep 23 16:19:49 2025

Set parameter WLSAccessID
Set parameter WLSSecret
Set parameter LicenseID to value 2677366
Set parameter LogFile to value "gurobi.log"
Using license file /home/lauinger/.gurobi/gurobi.lic
Academic license 2677366 - for non-commercial use only - registered to la___@mit.edu
